(set-info :source |printed by MathSAT|)
(declare-fun A_1 () (Array Int Int))
(declare-fun .x.3 () (Array Int Int))
(declare-fun B_1 () Int)
(declare-fun .y.12 () Int)
(declare-fun C_1 () Int)
(declare-fun .y.13 () Int)
(declare-fun D_1 () Int)
(declare-fun .y.14 () Int)
(declare-fun E_0 () Int)
(declare-fun .y.15 () Int)
(declare-fun .y.6 () (Array Int Int))
(declare-fun F_0 () (Array Int Int))
(declare-fun .y.7 () Int)
(declare-fun v_6 () Int)
(declare-fun .y.8 () Int)
(declare-fun .x.4 () Int)
(declare-fun .y.9 () Int)
(declare-fun .x.5 () Int)
(declare-fun .y.10 () Int)
(declare-fun .x.6 () Int)
(declare-fun .loc.11 () Bool)
(declare-fun .loc.16 () Bool)
(declare-fun G_1 () Int)
(define-fun .def_8 () (Array Int Int) (! A_1 :next |.x.3|))
(define-fun .def_10 () Int (! B_1 :next |.y.12|))
(define-fun .def_12 () Int (! C_1 :next |.y.13|))
(define-fun .def_14 () Int (! D_1 :next |.y.14|))
(define-fun .def_16 () Int (! E_0 :next |.y.15|))
(define-fun .def_18 () (Array Int Int) (! .y.6 :next |F_0|))
(define-fun .def_20 () Int (! .y.7 :next |v_6|))
(define-fun .def_22 () Int (! .y.8 :next |.x.4|))
(define-fun .def_24 () Int (! .y.9 :next |.x.5|))
(define-fun .def_26 () Int (! .y.10 :next |.x.6|))
(define-fun .def_28 () Bool (! .loc.11 :next |.loc.16|))
(define-fun .def_95 () Int (! G_1 :next |.xpv.1|))
(define-fun .def_93 () Bool (= .def_10 0))
(define-fun .def_30 () Bool (not .def_28))
(define-fun .def_94 () Bool (! (and .def_30 .def_93) :init true))
(define-fun .def_91 () Bool (= .def_8 .x.3))
(define-fun .def_85 () Bool (= .def_16 .x.6))
(define-fun .def_83 () Bool (= .def_14 .x.5))
(define-fun .def_80 () Bool (= v_6 0))
(define-fun .def_31 () Bool (<= .def_16 .def_10))
(define-fun .def_81 () Bool (and .def_31 .def_80))
(define-fun .def_79 () Bool (= .def_12 .x.4))
(define-fun .def_82 () Bool (and .def_79 .def_81))
(define-fun .def_84 () Bool (and .def_82 .def_83))
(define-fun .def_86 () Bool (and .def_84 .def_85))
(define-fun .def_87 () Bool (and .def_30 .def_86))
(define-fun .def_76 () Bool (<= .def_26 .def_20))
(define-fun .def_77 () Bool (not .def_76))
(define-fun .def_72 () Int (* (- 1) v_6))
(define-fun .def_73 () Int (+ .def_20 .def_72))
(define-fun .def_74 () Bool (= .def_73 (- 1)))
(define-fun .def_58 () Int (select .def_8 .def_20))
(define-fun .def_60 () Int (* (- 2) .def_58))
(define-fun .def_61 () Int (+ .def_24 .def_60))
(define-fun .def_62 () Int (+ .def_22 .def_61))
(define-fun .def_64 () Bool (<= 0 .def_62))
(define-fun .def_65 () Int (ite .def_64 .def_22 .def_24))
(define-fun .def_66 () (Array Int Int) (store .def_18 .def_20 .def_65))
(define-fun .def_67 () Bool (= F_0 .def_66))
(define-fun .def_56 () Bool (= .def_22 .x.4))
(define-fun .def_54 () Bool (= .def_24 .x.5))
(define-fun .def_52 () Bool (= .def_26 .x.6))
(define-fun .def_53 () Bool (and .def_28 .def_52))
(define-fun .def_55 () Bool (and .def_53 .def_54))
(define-fun .def_57 () Bool (and .def_55 .def_56))
(define-fun .def_68 () Bool (and .def_57 .def_67))
(define-fun .def_75 () Bool (and .def_68 .def_74))
(define-fun .def_78 () Bool (and .def_75 .def_77))
(define-fun .def_88 () Bool (or .def_78 .def_87))
(define-fun .def_89 () Bool (and .loc.16 .def_88))
(define-fun .def_43 () Int (select .def_8 .def_10))
(define-fun .def_48 () Bool (<= .def_12 .def_43))
(define-fun .def_49 () Int (ite .def_48 .def_12 .def_43))
(define-fun .def_50 () Bool (= .y.13 .def_49))
(define-fun .def_44 () Bool (<= .def_43 .def_14))
(define-fun .def_45 () Int (ite .def_44 .def_14 .def_43))
(define-fun .def_46 () Bool (= .y.14 .def_45))
(define-fun .def_39 () Int (* (- 1) .y.12))
(define-fun .def_40 () Int (+ .def_10 .def_39))
(define-fun .def_41 () Bool (= .def_40 (- 1)))
(define-fun .def_36 () Bool (= .def_16 .y.15))
(define-fun .def_34 () Bool (not .loc.16))
(define-fun .def_32 () Bool (not .def_31))
(define-fun .def_33 () Bool (and .def_30 .def_32))
(define-fun .def_35 () Bool (and .def_33 .def_34))
(define-fun .def_37 () Bool (and .def_35 .def_36))
(define-fun .def_42 () Bool (and .def_37 .def_41))
(define-fun .def_47 () Bool (and .def_42 .def_46))
(define-fun .def_51 () Bool (and .def_47 .def_50))
(define-fun .def_90 () Bool (or .def_51 .def_89))
(define-fun .def_92 () Bool (! (and .def_90 .def_91) :trans true))
(define-fun .def_104 () Bool (<= .def_95 0))
(define-fun .def_105 () Bool (not .def_104))
(define-fun .def_96 () Int (select .def_18 .def_95))
(define-fun .def_101 () Bool (= .def_22 .def_96))
(define-fun .def_102 () Bool (not .def_101))
(define-fun .def_99 () Bool (<= .def_26 .def_95))
(define-fun .def_100 () Bool (not .def_99))
(define-fun .def_103 () Bool (and .def_100 .def_102))
(define-fun .def_106 () Bool (and .def_103 .def_105))
(define-fun .def_97 () Bool (= .def_24 .def_96))
(define-fun .def_98 () Bool (not .def_97))
(define-fun .def_107 () Bool (and .def_98 .def_106))
(define-fun .def_108 () Bool (and .def_76 .def_107))
(define-fun .def_109 () Bool (and .def_28 .def_108))
(define-fun .def_111 () Bool (! (not .def_109) :invar-property 0))
(assert true)
